param target := -45;
set E := 1 2 3 4 5 6 7 8 9 10 11 12 13 14 15 16 17 18 19 20 ;
param weight := 
  1  9
  2  -11
  3  16
  4  -18
  5  3
  6  11
  7  2
  8  13
  9  13
  10  -15
  11  -12
  12  12
  13  -8
  14  -12
  15  -10
  16  -16
  17  -6
  18  11
  19  -18
  20  18
;
